nNurses = 78;
nHours = 27;
minHours = 9;
maxHours = 20;
maxConsec = 14;
maxPresence = 23;
demand = [21, 19, 16, 16, 12, 7, 6, 8, 8, 5, 10, 13, 18, 23, 19, 19, 19, 16, 15, 13, 14, 19, 21, 25, 30, 33, 32];
